(set-logic QF_LRA)
(declare-fun X0 () Real )
(declare-fun Y0 () Real )
(declare-fun X1 () Real )
(declare-fun Y1 () Real )
(declare-fun X2 () Real )
(declare-fun Y2 () Real )
(declare-fun X3 () Real )
(declare-fun Y3 () Real )
(declare-fun X4 () Real )
(declare-fun Y4 () Real )
(declare-fun X5 () Real )
(declare-fun Y5 () Real )
(declare-fun X6 () Real )
(declare-fun Y6 () Real )
(declare-fun X7 () Real )
(declare-fun Y7 () Real )
(declare-fun X8 () Real )
(declare-fun Y8 () Real )
(declare-fun X9 () Real )
(declare-fun Y9 () Real )
(declare-fun X10 () Real )
(declare-fun Y10 () Real )
(declare-fun X11 () Real )
(declare-fun Y11 () Real )
(declare-fun X12 () Real )
(declare-fun Y12 () Real )
(declare-fun X13 () Real )
(declare-fun Y13 () Real )
(declare-fun X14 () Real )
(declare-fun Y14 () Real )
(declare-fun X15 () Real )
(declare-fun Y15 () Real )
(declare-fun X16 () Real )
(declare-fun Y16 () Real )
(declare-fun X17 () Real )
(declare-fun Y17 () Real )
(declare-fun Z () Real )
(declare-fun k () Real )
(assert (let
(( $goal (>= Z k) ))
(let
((
$phi ( and 
( or ( <= ( + X0 49 ) X1 )  ( <= ( + X1 36 ) X0 )  ( <= ( + Y0 80 ) Y1 )  ( <= ( + Y1 12 ) Y0 )  )
( or ( <= ( + X0 49 ) X2 )  ( <= ( + X2 80 ) X0 )  ( <= ( + Y0 80 ) Y2 )  ( <= ( + Y2 88 ) Y0 )  )
( or ( <= ( + X0 49 ) X3 )  ( <= ( + X3 32 ) X0 )  ( <= ( + Y0 80 ) Y3 )  ( <= ( + Y3 100 ) Y0 )  )
( or ( <= ( + X0 49 ) X4 )  ( <= ( + X4 68 ) X0 )  ( <= ( + Y0 80 ) Y4 )  ( <= ( + Y4 42 ) Y0 )  )
( or ( <= ( + X0 49 ) X5 )  ( <= ( + X5 57 ) X0 )  ( <= ( + Y0 80 ) Y5 )  ( <= ( + Y5 62 ) Y0 )  )
( or ( <= ( + X0 49 ) X6 )  ( <= ( + X6 76 ) X0 )  ( <= ( + Y0 80 ) Y6 )  ( <= ( + Y6 32 ) Y0 )  )
( or ( <= ( + X0 49 ) X7 )  ( <= ( + X7 29 ) X0 )  ( <= ( + Y0 80 ) Y7 )  ( <= ( + Y7 59 ) Y0 )  )
( or ( <= ( + X0 49 ) X8 )  ( <= ( + X8 19 ) X0 )  ( <= ( + Y0 80 ) Y8 )  ( <= ( + Y8 79 ) Y0 )  )
( or ( <= ( + X0 49 ) X9 )  ( <= ( + X9 64 ) X0 )  ( <= ( + Y0 80 ) Y9 )  ( <= ( + Y9 77 ) Y0 )  )
( or ( <= ( + X0 49 ) X10 )  ( <= ( + X10 31 ) X0 )  ( <= ( + Y0 80 ) Y10 )  ( <= ( + Y10 78 ) Y0 )  )
( or ( <= ( + X0 49 ) X11 )  ( <= ( + X11 69 ) X0 )  ( <= ( + Y0 80 ) Y11 )  ( <= ( + Y11 7 ) Y0 )  )
( or ( <= ( + X0 49 ) X12 )  ( <= ( + X12 88 ) X0 )  ( <= ( + Y0 80 ) Y12 )  ( <= ( + Y12 50 ) Y0 )  )
( or ( <= ( + X0 49 ) X13 )  ( <= ( + X13 82 ) X0 )  ( <= ( + Y0 80 ) Y13 )  ( <= ( + Y13 78 ) Y0 )  )
( or ( <= ( + X0 49 ) X14 )  ( <= ( + X14 60 ) X0 )  ( <= ( + Y0 80 ) Y14 )  ( <= ( + Y14 94 ) Y0 )  )
( or ( <= ( + X0 49 ) X15 )  ( <= ( + X15 73 ) X0 )  ( <= ( + Y0 80 ) Y15 )  ( <= ( + Y15 81 ) Y0 )  )
( or ( <= ( + X0 49 ) X16 )  ( <= ( + X16 17 ) X0 )  ( <= ( + Y0 80 ) Y16 )  ( <= ( + Y16 62 ) Y0 )  )
( or ( <= ( + X0 49 ) X17 )  ( <= ( + X17 51 ) X0 )  ( <= ( + Y0 80 ) Y17 )  ( <= ( + Y17 61 ) Y0 )  )
( or ( <= ( + X1 36 ) X2 )  ( <= ( + X2 80 ) X1 )  ( <= ( + Y1 12 ) Y2 )  ( <= ( + Y2 88 ) Y1 )  )
( or ( <= ( + X1 36 ) X3 )  ( <= ( + X3 32 ) X1 )  ( <= ( + Y1 12 ) Y3 )  ( <= ( + Y3 100 ) Y1 )  )
( or ( <= ( + X1 36 ) X4 )  ( <= ( + X4 68 ) X1 )  ( <= ( + Y1 12 ) Y4 )  ( <= ( + Y4 42 ) Y1 )  )
( or ( <= ( + X1 36 ) X5 )  ( <= ( + X5 57 ) X1 )  ( <= ( + Y1 12 ) Y5 )  ( <= ( + Y5 62 ) Y1 )  )
( or ( <= ( + X1 36 ) X6 )  ( <= ( + X6 76 ) X1 )  ( <= ( + Y1 12 ) Y6 )  ( <= ( + Y6 32 ) Y1 )  )
( or ( <= ( + X1 36 ) X7 )  ( <= ( + X7 29 ) X1 )  ( <= ( + Y1 12 ) Y7 )  ( <= ( + Y7 59 ) Y1 )  )
( or ( <= ( + X1 36 ) X8 )  ( <= ( + X8 19 ) X1 )  ( <= ( + Y1 12 ) Y8 )  ( <= ( + Y8 79 ) Y1 )  )
( or ( <= ( + X1 36 ) X9 )  ( <= ( + X9 64 ) X1 )  ( <= ( + Y1 12 ) Y9 )  ( <= ( + Y9 77 ) Y1 )  )
( or ( <= ( + X1 36 ) X10 )  ( <= ( + X10 31 ) X1 )  ( <= ( + Y1 12 ) Y10 )  ( <= ( + Y10 78 ) Y1 )  )
( or ( <= ( + X1 36 ) X11 )  ( <= ( + X11 69 ) X1 )  ( <= ( + Y1 12 ) Y11 )  ( <= ( + Y11 7 ) Y1 )  )
( or ( <= ( + X1 36 ) X12 )  ( <= ( + X12 88 ) X1 )  ( <= ( + Y1 12 ) Y12 )  ( <= ( + Y12 50 ) Y1 )  )
( or ( <= ( + X1 36 ) X13 )  ( <= ( + X13 82 ) X1 )  ( <= ( + Y1 12 ) Y13 )  ( <= ( + Y13 78 ) Y1 )  )
( or ( <= ( + X1 36 ) X14 )  ( <= ( + X14 60 ) X1 )  ( <= ( + Y1 12 ) Y14 )  ( <= ( + Y14 94 ) Y1 )  )
( or ( <= ( + X1 36 ) X15 )  ( <= ( + X15 73 ) X1 )  ( <= ( + Y1 12 ) Y15 )  ( <= ( + Y15 81 ) Y1 )  )
( or ( <= ( + X1 36 ) X16 )  ( <= ( + X16 17 ) X1 )  ( <= ( + Y1 12 ) Y16 )  ( <= ( + Y16 62 ) Y1 )  )
( or ( <= ( + X1 36 ) X17 )  ( <= ( + X17 51 ) X1 )  ( <= ( + Y1 12 ) Y17 )  ( <= ( + Y17 61 ) Y1 )  )
( or ( <= ( + X2 80 ) X3 )  ( <= ( + X3 32 ) X2 )  ( <= ( + Y2 88 ) Y3 )  ( <= ( + Y3 100 ) Y2 )  )
( or ( <= ( + X2 80 ) X4 )  ( <= ( + X4 68 ) X2 )  ( <= ( + Y2 88 ) Y4 )  ( <= ( + Y4 42 ) Y2 )  )
( or ( <= ( + X2 80 ) X5 )  ( <= ( + X5 57 ) X2 )  ( <= ( + Y2 88 ) Y5 )  ( <= ( + Y5 62 ) Y2 )  )
( or ( <= ( + X2 80 ) X6 )  ( <= ( + X6 76 ) X2 )  ( <= ( + Y2 88 ) Y6 )  ( <= ( + Y6 32 ) Y2 )  )
( or ( <= ( + X2 80 ) X7 )  ( <= ( + X7 29 ) X2 )  ( <= ( + Y2 88 ) Y7 )  ( <= ( + Y7 59 ) Y2 )  )
( or ( <= ( + X2 80 ) X8 )  ( <= ( + X8 19 ) X2 )  ( <= ( + Y2 88 ) Y8 )  ( <= ( + Y8 79 ) Y2 )  )
( or ( <= ( + X2 80 ) X9 )  ( <= ( + X9 64 ) X2 )  ( <= ( + Y2 88 ) Y9 )  ( <= ( + Y9 77 ) Y2 )  )
( or ( <= ( + X2 80 ) X10 )  ( <= ( + X10 31 ) X2 )  ( <= ( + Y2 88 ) Y10 )  ( <= ( + Y10 78 ) Y2 )  )
( or ( <= ( + X2 80 ) X11 )  ( <= ( + X11 69 ) X2 )  ( <= ( + Y2 88 ) Y11 )  ( <= ( + Y11 7 ) Y2 )  )
( or ( <= ( + X2 80 ) X12 )  ( <= ( + X12 88 ) X2 )  ( <= ( + Y2 88 ) Y12 )  ( <= ( + Y12 50 ) Y2 )  )
( or ( <= ( + X2 80 ) X13 )  ( <= ( + X13 82 ) X2 )  ( <= ( + Y2 88 ) Y13 )  ( <= ( + Y13 78 ) Y2 )  )
( or ( <= ( + X2 80 ) X14 )  ( <= ( + X14 60 ) X2 )  ( <= ( + Y2 88 ) Y14 )  ( <= ( + Y14 94 ) Y2 )  )
( or ( <= ( + X2 80 ) X15 )  ( <= ( + X15 73 ) X2 )  ( <= ( + Y2 88 ) Y15 )  ( <= ( + Y15 81 ) Y2 )  )
( or ( <= ( + X2 80 ) X16 )  ( <= ( + X16 17 ) X2 )  ( <= ( + Y2 88 ) Y16 )  ( <= ( + Y16 62 ) Y2 )  )
( or ( <= ( + X2 80 ) X17 )  ( <= ( + X17 51 ) X2 )  ( <= ( + Y2 88 ) Y17 )  ( <= ( + Y17 61 ) Y2 )  )
( or ( <= ( + X3 32 ) X4 )  ( <= ( + X4 68 ) X3 )  ( <= ( + Y3 100 ) Y4 )  ( <= ( + Y4 42 ) Y3 )  )
( or ( <= ( + X3 32 ) X5 )  ( <= ( + X5 57 ) X3 )  ( <= ( + Y3 100 ) Y5 )  ( <= ( + Y5 62 ) Y3 )  )
( or ( <= ( + X3 32 ) X6 )  ( <= ( + X6 76 ) X3 )  ( <= ( + Y3 100 ) Y6 )  ( <= ( + Y6 32 ) Y3 )  )
( or ( <= ( + X3 32 ) X7 )  ( <= ( + X7 29 ) X3 )  ( <= ( + Y3 100 ) Y7 )  ( <= ( + Y7 59 ) Y3 )  )
( or ( <= ( + X3 32 ) X8 )  ( <= ( + X8 19 ) X3 )  ( <= ( + Y3 100 ) Y8 )  ( <= ( + Y8 79 ) Y3 )  )
( or ( <= ( + X3 32 ) X9 )  ( <= ( + X9 64 ) X3 )  ( <= ( + Y3 100 ) Y9 )  ( <= ( + Y9 77 ) Y3 )  )
( or ( <= ( + X3 32 ) X10 )  ( <= ( + X10 31 ) X3 )  ( <= ( + Y3 100 ) Y10 )  ( <= ( + Y10 78 ) Y3 )  )
( or ( <= ( + X3 32 ) X11 )  ( <= ( + X11 69 ) X3 )  ( <= ( + Y3 100 ) Y11 )  ( <= ( + Y11 7 ) Y3 )  )
( or ( <= ( + X3 32 ) X12 )  ( <= ( + X12 88 ) X3 )  ( <= ( + Y3 100 ) Y12 )  ( <= ( + Y12 50 ) Y3 )  )
( or ( <= ( + X3 32 ) X13 )  ( <= ( + X13 82 ) X3 )  ( <= ( + Y3 100 ) Y13 )  ( <= ( + Y13 78 ) Y3 )  )
( or ( <= ( + X3 32 ) X14 )  ( <= ( + X14 60 ) X3 )  ( <= ( + Y3 100 ) Y14 )  ( <= ( + Y14 94 ) Y3 )  )
( or ( <= ( + X3 32 ) X15 )  ( <= ( + X15 73 ) X3 )  ( <= ( + Y3 100 ) Y15 )  ( <= ( + Y15 81 ) Y3 )  )
( or ( <= ( + X3 32 ) X16 )  ( <= ( + X16 17 ) X3 )  ( <= ( + Y3 100 ) Y16 )  ( <= ( + Y16 62 ) Y3 )  )
( or ( <= ( + X3 32 ) X17 )  ( <= ( + X17 51 ) X3 )  ( <= ( + Y3 100 ) Y17 )  ( <= ( + Y17 61 ) Y3 )  )
( or ( <= ( + X4 68 ) X5 )  ( <= ( + X5 57 ) X4 )  ( <= ( + Y4 42 ) Y5 )  ( <= ( + Y5 62 ) Y4 )  )
( or ( <= ( + X4 68 ) X6 )  ( <= ( + X6 76 ) X4 )  ( <= ( + Y4 42 ) Y6 )  ( <= ( + Y6 32 ) Y4 )  )
( or ( <= ( + X4 68 ) X7 )  ( <= ( + X7 29 ) X4 )  ( <= ( + Y4 42 ) Y7 )  ( <= ( + Y7 59 ) Y4 )  )
( or ( <= ( + X4 68 ) X8 )  ( <= ( + X8 19 ) X4 )  ( <= ( + Y4 42 ) Y8 )  ( <= ( + Y8 79 ) Y4 )  )
( or ( <= ( + X4 68 ) X9 )  ( <= ( + X9 64 ) X4 )  ( <= ( + Y4 42 ) Y9 )  ( <= ( + Y9 77 ) Y4 )  )
( or ( <= ( + X4 68 ) X10 )  ( <= ( + X10 31 ) X4 )  ( <= ( + Y4 42 ) Y10 )  ( <= ( + Y10 78 ) Y4 )  )
( or ( <= ( + X4 68 ) X11 )  ( <= ( + X11 69 ) X4 )  ( <= ( + Y4 42 ) Y11 )  ( <= ( + Y11 7 ) Y4 )  )
( or ( <= ( + X4 68 ) X12 )  ( <= ( + X12 88 ) X4 )  ( <= ( + Y4 42 ) Y12 )  ( <= ( + Y12 50 ) Y4 )  )
( or ( <= ( + X4 68 ) X13 )  ( <= ( + X13 82 ) X4 )  ( <= ( + Y4 42 ) Y13 )  ( <= ( + Y13 78 ) Y4 )  )
( or ( <= ( + X4 68 ) X14 )  ( <= ( + X14 60 ) X4 )  ( <= ( + Y4 42 ) Y14 )  ( <= ( + Y14 94 ) Y4 )  )
( or ( <= ( + X4 68 ) X15 )  ( <= ( + X15 73 ) X4 )  ( <= ( + Y4 42 ) Y15 )  ( <= ( + Y15 81 ) Y4 )  )
( or ( <= ( + X4 68 ) X16 )  ( <= ( + X16 17 ) X4 )  ( <= ( + Y4 42 ) Y16 )  ( <= ( + Y16 62 ) Y4 )  )
( or ( <= ( + X4 68 ) X17 )  ( <= ( + X17 51 ) X4 )  ( <= ( + Y4 42 ) Y17 )  ( <= ( + Y17 61 ) Y4 )  )
( or ( <= ( + X5 57 ) X6 )  ( <= ( + X6 76 ) X5 )  ( <= ( + Y5 62 ) Y6 )  ( <= ( + Y6 32 ) Y5 )  )
( or ( <= ( + X5 57 ) X7 )  ( <= ( + X7 29 ) X5 )  ( <= ( + Y5 62 ) Y7 )  ( <= ( + Y7 59 ) Y5 )  )
( or ( <= ( + X5 57 ) X8 )  ( <= ( + X8 19 ) X5 )  ( <= ( + Y5 62 ) Y8 )  ( <= ( + Y8 79 ) Y5 )  )
( or ( <= ( + X5 57 ) X9 )  ( <= ( + X9 64 ) X5 )  ( <= ( + Y5 62 ) Y9 )  ( <= ( + Y9 77 ) Y5 )  )
( or ( <= ( + X5 57 ) X10 )  ( <= ( + X10 31 ) X5 )  ( <= ( + Y5 62 ) Y10 )  ( <= ( + Y10 78 ) Y5 )  )
( or ( <= ( + X5 57 ) X11 )  ( <= ( + X11 69 ) X5 )  ( <= ( + Y5 62 ) Y11 )  ( <= ( + Y11 7 ) Y5 )  )
( or ( <= ( + X5 57 ) X12 )  ( <= ( + X12 88 ) X5 )  ( <= ( + Y5 62 ) Y12 )  ( <= ( + Y12 50 ) Y5 )  )
( or ( <= ( + X5 57 ) X13 )  ( <= ( + X13 82 ) X5 )  ( <= ( + Y5 62 ) Y13 )  ( <= ( + Y13 78 ) Y5 )  )
( or ( <= ( + X5 57 ) X14 )  ( <= ( + X14 60 ) X5 )  ( <= ( + Y5 62 ) Y14 )  ( <= ( + Y14 94 ) Y5 )  )
( or ( <= ( + X5 57 ) X15 )  ( <= ( + X15 73 ) X5 )  ( <= ( + Y5 62 ) Y15 )  ( <= ( + Y15 81 ) Y5 )  )
( or ( <= ( + X5 57 ) X16 )  ( <= ( + X16 17 ) X5 )  ( <= ( + Y5 62 ) Y16 )  ( <= ( + Y16 62 ) Y5 )  )
( or ( <= ( + X5 57 ) X17 )  ( <= ( + X17 51 ) X5 )  ( <= ( + Y5 62 ) Y17 )  ( <= ( + Y17 61 ) Y5 )  )
( or ( <= ( + X6 76 ) X7 )  ( <= ( + X7 29 ) X6 )  ( <= ( + Y6 32 ) Y7 )  ( <= ( + Y7 59 ) Y6 )  )
( or ( <= ( + X6 76 ) X8 )  ( <= ( + X8 19 ) X6 )  ( <= ( + Y6 32 ) Y8 )  ( <= ( + Y8 79 ) Y6 )  )
( or ( <= ( + X6 76 ) X9 )  ( <= ( + X9 64 ) X6 )  ( <= ( + Y6 32 ) Y9 )  ( <= ( + Y9 77 ) Y6 )  )
( or ( <= ( + X6 76 ) X10 )  ( <= ( + X10 31 ) X6 )  ( <= ( + Y6 32 ) Y10 )  ( <= ( + Y10 78 ) Y6 )  )
( or ( <= ( + X6 76 ) X11 )  ( <= ( + X11 69 ) X6 )  ( <= ( + Y6 32 ) Y11 )  ( <= ( + Y11 7 ) Y6 )  )
( or ( <= ( + X6 76 ) X12 )  ( <= ( + X12 88 ) X6 )  ( <= ( + Y6 32 ) Y12 )  ( <= ( + Y12 50 ) Y6 )  )
( or ( <= ( + X6 76 ) X13 )  ( <= ( + X13 82 ) X6 )  ( <= ( + Y6 32 ) Y13 )  ( <= ( + Y13 78 ) Y6 )  )
( or ( <= ( + X6 76 ) X14 )  ( <= ( + X14 60 ) X6 )  ( <= ( + Y6 32 ) Y14 )  ( <= ( + Y14 94 ) Y6 )  )
( or ( <= ( + X6 76 ) X15 )  ( <= ( + X15 73 ) X6 )  ( <= ( + Y6 32 ) Y15 )  ( <= ( + Y15 81 ) Y6 )  )
( or ( <= ( + X6 76 ) X16 )  ( <= ( + X16 17 ) X6 )  ( <= ( + Y6 32 ) Y16 )  ( <= ( + Y16 62 ) Y6 )  )
( or ( <= ( + X6 76 ) X17 )  ( <= ( + X17 51 ) X6 )  ( <= ( + Y6 32 ) Y17 )  ( <= ( + Y17 61 ) Y6 )  )
( or ( <= ( + X7 29 ) X8 )  ( <= ( + X8 19 ) X7 )  ( <= ( + Y7 59 ) Y8 )  ( <= ( + Y8 79 ) Y7 )  )
( or ( <= ( + X7 29 ) X9 )  ( <= ( + X9 64 ) X7 )  ( <= ( + Y7 59 ) Y9 )  ( <= ( + Y9 77 ) Y7 )  )
( or ( <= ( + X7 29 ) X10 )  ( <= ( + X10 31 ) X7 )  ( <= ( + Y7 59 ) Y10 )  ( <= ( + Y10 78 ) Y7 )  )
( or ( <= ( + X7 29 ) X11 )  ( <= ( + X11 69 ) X7 )  ( <= ( + Y7 59 ) Y11 )  ( <= ( + Y11 7 ) Y7 )  )
( or ( <= ( + X7 29 ) X12 )  ( <= ( + X12 88 ) X7 )  ( <= ( + Y7 59 ) Y12 )  ( <= ( + Y12 50 ) Y7 )  )
( or ( <= ( + X7 29 ) X13 )  ( <= ( + X13 82 ) X7 )  ( <= ( + Y7 59 ) Y13 )  ( <= ( + Y13 78 ) Y7 )  )
( or ( <= ( + X7 29 ) X14 )  ( <= ( + X14 60 ) X7 )  ( <= ( + Y7 59 ) Y14 )  ( <= ( + Y14 94 ) Y7 )  )
( or ( <= ( + X7 29 ) X15 )  ( <= ( + X15 73 ) X7 )  ( <= ( + Y7 59 ) Y15 )  ( <= ( + Y15 81 ) Y7 )  )
( or ( <= ( + X7 29 ) X16 )  ( <= ( + X16 17 ) X7 )  ( <= ( + Y7 59 ) Y16 )  ( <= ( + Y16 62 ) Y7 )  )
( or ( <= ( + X7 29 ) X17 )  ( <= ( + X17 51 ) X7 )  ( <= ( + Y7 59 ) Y17 )  ( <= ( + Y17 61 ) Y7 )  )
( or ( <= ( + X8 19 ) X9 )  ( <= ( + X9 64 ) X8 )  ( <= ( + Y8 79 ) Y9 )  ( <= ( + Y9 77 ) Y8 )  )
( or ( <= ( + X8 19 ) X10 )  ( <= ( + X10 31 ) X8 )  ( <= ( + Y8 79 ) Y10 )  ( <= ( + Y10 78 ) Y8 )  )
( or ( <= ( + X8 19 ) X11 )  ( <= ( + X11 69 ) X8 )  ( <= ( + Y8 79 ) Y11 )  ( <= ( + Y11 7 ) Y8 )  )
( or ( <= ( + X8 19 ) X12 )  ( <= ( + X12 88 ) X8 )  ( <= ( + Y8 79 ) Y12 )  ( <= ( + Y12 50 ) Y8 )  )
( or ( <= ( + X8 19 ) X13 )  ( <= ( + X13 82 ) X8 )  ( <= ( + Y8 79 ) Y13 )  ( <= ( + Y13 78 ) Y8 )  )
( or ( <= ( + X8 19 ) X14 )  ( <= ( + X14 60 ) X8 )  ( <= ( + Y8 79 ) Y14 )  ( <= ( + Y14 94 ) Y8 )  )
( or ( <= ( + X8 19 ) X15 )  ( <= ( + X15 73 ) X8 )  ( <= ( + Y8 79 ) Y15 )  ( <= ( + Y15 81 ) Y8 )  )
( or ( <= ( + X8 19 ) X16 )  ( <= ( + X16 17 ) X8 )  ( <= ( + Y8 79 ) Y16 )  ( <= ( + Y16 62 ) Y8 )  )
( or ( <= ( + X8 19 ) X17 )  ( <= ( + X17 51 ) X8 )  ( <= ( + Y8 79 ) Y17 )  ( <= ( + Y17 61 ) Y8 )  )
( or ( <= ( + X9 64 ) X10 )  ( <= ( + X10 31 ) X9 )  ( <= ( + Y9 77 ) Y10 )  ( <= ( + Y10 78 ) Y9 )  )
( or ( <= ( + X9 64 ) X11 )  ( <= ( + X11 69 ) X9 )  ( <= ( + Y9 77 ) Y11 )  ( <= ( + Y11 7 ) Y9 )  )
( or ( <= ( + X9 64 ) X12 )  ( <= ( + X12 88 ) X9 )  ( <= ( + Y9 77 ) Y12 )  ( <= ( + Y12 50 ) Y9 )  )
( or ( <= ( + X9 64 ) X13 )  ( <= ( + X13 82 ) X9 )  ( <= ( + Y9 77 ) Y13 )  ( <= ( + Y13 78 ) Y9 )  )
( or ( <= ( + X9 64 ) X14 )  ( <= ( + X14 60 ) X9 )  ( <= ( + Y9 77 ) Y14 )  ( <= ( + Y14 94 ) Y9 )  )
( or ( <= ( + X9 64 ) X15 )  ( <= ( + X15 73 ) X9 )  ( <= ( + Y9 77 ) Y15 )  ( <= ( + Y15 81 ) Y9 )  )
( or ( <= ( + X9 64 ) X16 )  ( <= ( + X16 17 ) X9 )  ( <= ( + Y9 77 ) Y16 )  ( <= ( + Y16 62 ) Y9 )  )
( or ( <= ( + X9 64 ) X17 )  ( <= ( + X17 51 ) X9 )  ( <= ( + Y9 77 ) Y17 )  ( <= ( + Y17 61 ) Y9 )  )
( or ( <= ( + X10 31 ) X11 )  ( <= ( + X11 69 ) X10 )  ( <= ( + Y10 78 ) Y11 )  ( <= ( + Y11 7 ) Y10 )  )
( or ( <= ( + X10 31 ) X12 )  ( <= ( + X12 88 ) X10 )  ( <= ( + Y10 78 ) Y12 )  ( <= ( + Y12 50 ) Y10 )  )
( or ( <= ( + X10 31 ) X13 )  ( <= ( + X13 82 ) X10 )  ( <= ( + Y10 78 ) Y13 )  ( <= ( + Y13 78 ) Y10 )  )
( or ( <= ( + X10 31 ) X14 )  ( <= ( + X14 60 ) X10 )  ( <= ( + Y10 78 ) Y14 )  ( <= ( + Y14 94 ) Y10 )  )
( or ( <= ( + X10 31 ) X15 )  ( <= ( + X15 73 ) X10 )  ( <= ( + Y10 78 ) Y15 )  ( <= ( + Y15 81 ) Y10 )  )
( or ( <= ( + X10 31 ) X16 )  ( <= ( + X16 17 ) X10 )  ( <= ( + Y10 78 ) Y16 )  ( <= ( + Y16 62 ) Y10 )  )
( or ( <= ( + X10 31 ) X17 )  ( <= ( + X17 51 ) X10 )  ( <= ( + Y10 78 ) Y17 )  ( <= ( + Y17 61 ) Y10 )  )
( or ( <= ( + X11 69 ) X12 )  ( <= ( + X12 88 ) X11 )  ( <= ( + Y11 7 ) Y12 )  ( <= ( + Y12 50 ) Y11 )  )
( or ( <= ( + X11 69 ) X13 )  ( <= ( + X13 82 ) X11 )  ( <= ( + Y11 7 ) Y13 )  ( <= ( + Y13 78 ) Y11 )  )
( or ( <= ( + X11 69 ) X14 )  ( <= ( + X14 60 ) X11 )  ( <= ( + Y11 7 ) Y14 )  ( <= ( + Y14 94 ) Y11 )  )
( or ( <= ( + X11 69 ) X15 )  ( <= ( + X15 73 ) X11 )  ( <= ( + Y11 7 ) Y15 )  ( <= ( + Y15 81 ) Y11 )  )
( or ( <= ( + X11 69 ) X16 )  ( <= ( + X16 17 ) X11 )  ( <= ( + Y11 7 ) Y16 )  ( <= ( + Y16 62 ) Y11 )  )
( or ( <= ( + X11 69 ) X17 )  ( <= ( + X17 51 ) X11 )  ( <= ( + Y11 7 ) Y17 )  ( <= ( + Y17 61 ) Y11 )  )
( or ( <= ( + X12 88 ) X13 )  ( <= ( + X13 82 ) X12 )  ( <= ( + Y12 50 ) Y13 )  ( <= ( + Y13 78 ) Y12 )  )
( or ( <= ( + X12 88 ) X14 )  ( <= ( + X14 60 ) X12 )  ( <= ( + Y12 50 ) Y14 )  ( <= ( + Y14 94 ) Y12 )  )
( or ( <= ( + X12 88 ) X15 )  ( <= ( + X15 73 ) X12 )  ( <= ( + Y12 50 ) Y15 )  ( <= ( + Y15 81 ) Y12 )  )
( or ( <= ( + X12 88 ) X16 )  ( <= ( + X16 17 ) X12 )  ( <= ( + Y12 50 ) Y16 )  ( <= ( + Y16 62 ) Y12 )  )
( or ( <= ( + X12 88 ) X17 )  ( <= ( + X17 51 ) X12 )  ( <= ( + Y12 50 ) Y17 )  ( <= ( + Y17 61 ) Y12 )  )
( or ( <= ( + X13 82 ) X14 )  ( <= ( + X14 60 ) X13 )  ( <= ( + Y13 78 ) Y14 )  ( <= ( + Y14 94 ) Y13 )  )
( or ( <= ( + X13 82 ) X15 )  ( <= ( + X15 73 ) X13 )  ( <= ( + Y13 78 ) Y15 )  ( <= ( + Y15 81 ) Y13 )  )
( or ( <= ( + X13 82 ) X16 )  ( <= ( + X16 17 ) X13 )  ( <= ( + Y13 78 ) Y16 )  ( <= ( + Y16 62 ) Y13 )  )
( or ( <= ( + X13 82 ) X17 )  ( <= ( + X17 51 ) X13 )  ( <= ( + Y13 78 ) Y17 )  ( <= ( + Y17 61 ) Y13 )  )
( or ( <= ( + X14 60 ) X15 )  ( <= ( + X15 73 ) X14 )  ( <= ( + Y14 94 ) Y15 )  ( <= ( + Y15 81 ) Y14 )  )
( or ( <= ( + X14 60 ) X16 )  ( <= ( + X16 17 ) X14 )  ( <= ( + Y14 94 ) Y16 )  ( <= ( + Y16 62 ) Y14 )  )
( or ( <= ( + X14 60 ) X17 )  ( <= ( + X17 51 ) X14 )  ( <= ( + Y14 94 ) Y17 )  ( <= ( + Y17 61 ) Y14 )  )
( or ( <= ( + X15 73 ) X16 )  ( <= ( + X16 17 ) X15 )  ( <= ( + Y15 81 ) Y16 )  ( <= ( + Y16 62 ) Y15 )  )
( or ( <= ( + X15 73 ) X17 )  ( <= ( + X17 51 ) X15 )  ( <= ( + Y15 81 ) Y17 )  ( <= ( + Y17 61 ) Y15 )  )
( or ( <= ( + X16 17 ) X17 )  ( <= ( + X17 51 ) X16 )  ( <= ( + Y16 62 ) Y17 )  ( <= ( + Y17 61 ) Y16 )  )
( >= X0 0)
( <= ( + X0 49) Z)
( >= Y0 0)
( <= ( + Y0 80 ) 100)
( >= X1 0)
( <= ( + X1 36) Z)
( >= Y1 0)
( <= ( + Y1 12 ) 100)
( >= X2 0)
( <= ( + X2 80) Z)
( >= Y2 0)
( <= ( + Y2 88 ) 100)
( >= X3 0)
( <= ( + X3 32) Z)
( >= Y3 0)
( <= ( + Y3 100 ) 100)
( >= X4 0)
( <= ( + X4 68) Z)
( >= Y4 0)
( <= ( + Y4 42 ) 100)
( >= X5 0)
( <= ( + X5 57) Z)
( >= Y5 0)
( <= ( + Y5 62 ) 100)
( >= X6 0)
( <= ( + X6 76) Z)
( >= Y6 0)
( <= ( + Y6 32 ) 100)
( >= X7 0)
( <= ( + X7 29) Z)
( >= Y7 0)
( <= ( + Y7 59 ) 100)
( >= X8 0)
( <= ( + X8 19) Z)
( >= Y8 0)
( <= ( + Y8 79 ) 100)
( >= X9 0)
( <= ( + X9 64) Z)
( >= Y9 0)
( <= ( + Y9 77 ) 100)
( >= X10 0)
( <= ( + X10 31) Z)
( >= Y10 0)
( <= ( + Y10 78 ) 100)
( >= X11 0)
( <= ( + X11 69) Z)
( >= Y11 0)
( <= ( + Y11 7 ) 100)
( >= X12 0)
( <= ( + X12 88) Z)
( >= Y12 0)
( <= ( + Y12 50 ) 100)
( >= X13 0)
( <= ( + X13 82) Z)
( >= Y13 0)
( <= ( + Y13 78 ) 100)
( >= X14 0)
( <= ( + X14 60) Z)
( >= Y14 0)
( <= ( + Y14 94 ) 100)
( >= X15 0)
( <= ( + X15 73) Z)
( >= Y15 0)
( <= ( + Y15 81 ) 100)
( >= X16 0)
( <= ( + X16 17) Z)
( >= Y16 0)
( <= ( + Y16 62 ) 100)
( >= X17 0)
( <= ( + X17 51) Z)
( >= Y17 0)
( <= ( + Y17 61 ) 100)
) )
)(=> $phi $goal))))